n = 16;
lu = [|-164, 83
      |-155, -85
      |-5, -3
      |-21, -10
      |-126, -121
      |-90, 98
      |90, 147
      |188, 228
      |-136, -135
      |39, 120
      |-153, 91
      |172, 191
      |-146, -103
      |-253, 244
      |-143, 117
      |19, 48|];
